\ This file has been generated by DOcplex
\ ENCODING=ISO-8859-1
\Problem name: random_problem.lp

Minimize
 obj: - 840 x0 - 420 x1 - 210 x2 - 680 x3 - 340 x4 - 170 x5 - 916 x6 - 458 x7
      - 229 x8 - 176 x9 - 88 x10 - 44 x11 + 516 x12 + 258 x13 + 129 x14
      - 104 x15 - 52 x16 - 26 x17 + [ 1504 x0^2 + 1504 x0*x1 + 752 x0*x2
      + 256 x0*x3 + 128 x0*x4 + 64 x0*x5 - 448 x0*x6 - 224 x0*x7 - 112 x0*x8
      + 960 x0*x9 + 480 x0*x10 + 240 x0*x11 + 1920 x0*x12 + 960 x0*x13
      + 480 x0*x14 + 384 x0*x15 + 192 x0*x16 + 96 x0*x17 + 376 x1^2 + 376 x1*x2
      + 128 x1*x3 + 64 x1*x4 + 32 x1*x5 - 224 x1*x6 - 112 x1*x7 - 56 x1*x8
      + 480 x1*x9 + 240 x1*x10 + 120 x1*x11 + 960 x1*x12 + 480 x1*x13
      + 240 x1*x14 + 192 x1*x15 + 96 x1*x16 + 48 x1*x17 + 94 x2^2 + 64 x2*x3
      + 32 x2*x4 + 16 x2*x5 - 112 x2*x6 - 56 x2*x7 - 28 x2*x8 + 240 x2*x9
      + 120 x2*x10 + 60 x2*x11 + 480 x2*x12 + 240 x2*x13 + 120 x2*x14
      + 96 x2*x15 + 48 x2*x16 + 24 x2*x17 + 2112 x3^2 + 2112 x3*x4 + 1056 x3*x5
      + 1344 x3*x6 + 672 x3*x7 + 336 x3*x8 + 1152 x3*x9 + 576 x3*x10
      + 288 x3*x11 + 2048 x3*x12 + 1024 x3*x13 + 512 x3*x14 + 384 x3*x15
      + 192 x3*x16 + 96 x3*x17 + 528 x4^2 + 528 x4*x5 + 672 x4*x6 + 336 x4*x7
      + 168 x4*x8 + 576 x4*x9 + 288 x4*x10 + 144 x4*x11 + 1024 x4*x12
      + 512 x4*x13 + 256 x4*x14 + 192 x4*x15 + 96 x4*x16 + 48 x4*x17 + 132 x5^2
      + 336 x5*x6 + 168 x5*x7 + 84 x5*x8 + 288 x5*x9 + 144 x5*x10 + 72 x5*x11
      + 512 x5*x12 + 256 x5*x13 + 128 x5*x14 + 96 x5*x15 + 48 x5*x16 + 24 x5*x17
      + 3264 x6^2 + 3264 x6*x7 + 1632 x6*x8 + 2240 x6*x9 + 1120 x6*x10
      + 560 x6*x11 + 1664 x6*x12 + 832 x6*x13 + 416 x6*x14 + 1280 x6*x15
      + 640 x6*x16 + 320 x6*x17 + 816 x7^2 + 816 x7*x8 + 1120 x7*x9 + 560 x7*x10
      + 280 x7*x11 + 832 x7*x12 + 416 x7*x13 + 208 x7*x14 + 640 x7*x15
      + 320 x7*x16 + 160 x7*x17 + 204 x8^2 + 560 x8*x9 + 280 x8*x10 + 140 x8*x11
      + 416 x8*x12 + 208 x8*x13 + 104 x8*x14 + 320 x8*x15 + 160 x8*x16
      + 80 x8*x17 + 1888 x9^2 + 1888 x9*x10 + 944 x9*x11 + 3072 x9*x12
      + 1536 x9*x13 + 768 x9*x14 + 1088 x9*x15 + 544 x9*x16 + 272 x9*x17
      + 472 x10^2 + 472 x10*x11 + 1536 x10*x12 + 768 x10*x13 + 384 x10*x14
      + 544 x10*x15 + 272 x10*x16 + 136 x10*x17 + 118 x11^2 + 768 x11*x12
      + 384 x11*x13 + 192 x11*x14 + 272 x11*x15 + 136 x11*x16 + 68 x11*x17
      + 7776 x12^2 + 7776 x12*x13 + 3888 x12*x14 + 2176 x12*x15 + 1088 x12*x16
      + 544 x12*x17 + 1944 x13^2 + 1944 x13*x14 + 1088 x13*x15 + 544 x13*x16
      + 272 x13*x17 + 486 x14^2 + 544 x14*x15 + 272 x14*x16 + 136 x14*x17
      + 1504 x15^2 + 1504 x15*x16 + 752 x15*x17 + 376 x16^2 + 376 x16*x17
      + 94 x17^2 ]/2
Subject To
 c0: 4 x0 + 2 x1 + x2 + 4 x3 + 2 x4 + x5 + 4 x6 + 2 x7 + x8 + 4 x9 + 2 x10 + x11
     + 4 x12 + 2 x13 + x14 + 4 x15 + 2 x16 + x17 = 7

Bounds
 0 <= x0 <= 1
 0 <= x1 <= 1
 0 <= x2 <= 1
 0 <= x3 <= 1
 0 <= x4 <= 1
 0 <= x5 <= 1
 0 <= x6 <= 1
 0 <= x7 <= 1
 0 <= x8 <= 1
 0 <= x9 <= 1
 0 <= x10 <= 1
 0 <= x11 <= 1
 0 <= x12 <= 1
 0 <= x13 <= 1
 0 <= x14 <= 1
 0 <= x15 <= 1
 0 <= x16 <= 1
 0 <= x17 <= 1

Binaries
 x0 x1 x2 x3 x4 x5 x6 x7 x8 x9 x10 x11 x12 x13 x14 x15 x16 x17
End
